Output/Exact/Random_010_01_7.lp.out
CPU Time for Parsing input: 0.001533s (0.001533s total since program start)
CPU Time for solving: 0.003559s (0.005092s total since program start)

Value of objective function: 19.00000000
